Maximize
	+ 3 x1 - 3 x2 + 5 x3 + 1 x4 
Maximize
	- 4 x1 - 3 x3 
Maximize
	+ 1 x2 - 1 x3 - 2 x4 
Subject To
	+ 4 x1 + 4 x2 + 4 x3 <= 10
	+ 1 x1 + 2 x3 + 6 x4 <= 4
	- 1 x1 + 1 x3 + 1 x4 <= 6
Bounds
	0 <= x1 <= 4
	0 <= x2 <= 4
	0 <= x3 <= 4
	0 <= x4 <= 4
Integers
	x1 x2 x3 x4 
End